8367
8367
8367
8367
8367
8367
8367
8367
8367
8367
8367
8367
8367
8367
8367
8367
8367
8320
8320
8320
8320
8320
8320
8415
8415
8415
8415
8415
8415
8415
8415
8415
8415
7820
7820
7820
7820
7820
7820
7820
7820
7820
7820
7820
7820
7820
7820
7820
7820
7820
7820
7820
7820
7820
7820
7820
7820
7820
7820
7820
7820
7820
7820
7820
7820
7820
7820
7820
7820
7820
7820
7820
7820
7820
7820
7820
7820
7820
7820
7820
7820
7820
7820
7820
7820
7820
7820
7820
7820
7820
7820
7820
7820
7820
7820
7820
7820
7820
7820
7820
7820
7820
7820
7820
7820
7820
7820
7820
7820
7820
7820
7820
7820
7820
7820
7820
7820
7820
7820
7820
7820
7820
7820
7820
7820
7820
7820
7820
7820
7820
7820
7820
7820
7820
7820
7820
7820
7820
7820
7820
7820
7820
7820
7820
7820
7820
7820
7820
7820
7820
7820
7820
7820
7820
7820
7820
7820
7820
7820
7820
7820
7820
7820
7820
7820
7820
7820
7820
7820
7820
7820
7820
7820
7820
7820
7820
7820
7820
7820
7820
7820
7820
7820
7820
7820
7820
7820
7820
7820
7820
7820
7820
7820
7820
7820
7820
7820
7820
7820
7820
7820
7820
7820
7820
7820
7820
7820
7820
7820
7820
7820
7820
7820
7820
7820
7820
7820
7820
7820
7820
7820
7820
7820
7820
7820
7820
7820
7820
7820
7820
7820
7820
7820
7820
7820
7820
7820
7820
7820
7820
7820
7820
7820
7820
7820
7820
7820
7820
7820
7820
7820
7820
7820
7820
7820
7820
7820
7820
7820
7820
7820
7820
7820
7820
7820
7820
7820
7820
7820
7820
7820
7820
7820
7820
7820
7820
7820
7820
7820
7820
7820
7820
7820
7820
7820
7820
7820
7820
7820
7820
7820
7820
7820
7820
7820
7820
7820
7820
7820
7820
7820
7820
7820
7820
7820
7820
7820
7820
7820
7820
7820
7820
7820
7820
7820
7820
7820
7820
7820
7820
7820
7820
7820
7820
7820
7820
7820
7820
7820
7820
7820
7820
7820
7820
7820
7820
7820
7820
7820
7820
7820
7820
7820
7820
7820
7820
7820
7820
7820
7820
7820
7820
7820
7820
7820
7820
7820
7820
7820
7820
7820
7820
7820
7820
7820
7820
7820
7820
7820
7885
7885
7885
7885
7885
7885
7885
7885
7885
7885
7885
7885
7885
7885
7885
7885
7885
7885
7885
7885
7885
7885
7885
7885
7885
7885
7885
7885
7885
7885
7885
7885
7885
7885
7885
7885
7885
7885
7885
7885
7885
7885
7885
7885
7885
7885
7885
7885
7885
7885
7885
7885
7885
7885
7885
7885
7885
7885
7885
7885
7885
7885
7885
7885
7885
7885
7885
7885
7885
7885
7885
7885
7885
7885
7885
7885
7885
7885
7885
7885
7885
7885
7885
7885
7885
7885
7885
7885
7885
7885
7885
7885
7885
7885
7885
7885
7885
7885
7885
7885
7885
7885
7885
7885
7885
7885
7885
7885
7885
7885
7885
7885
7885
7885
7885
7885
7885
7885
7885
7885
7885
7885
7885
7885
7885
7885
7885
7885
7885
7885
7885
7885
7885
7885
7885
7885
7885
7885
7885
7885
7885
7885
7885
7885
7885
7885
7885
7885
7885
7885
7885
7885
7885
7885
7885
7885
7880
7880
7880
7880
7880
7880
7880
7880
7880
7880
7880
7880
7880
7880
7880
7880
7880
7880
7880
7880
7880
7880
7880
7880
7880
7880
8217
8217
8217
8217
8217
8217
8217
7921
7921
7921
7921
7921
7921
7921
7921
7921
7921
8265
8265
8265
8265
8265
8265
8265
8265
8265
8265
8265
8265
8265
8265
8265
8265
8265
8265
8265
8265
8265
8265
8265
8265
8265
8265
8150
8150
8150
8150
8150
8150
8150
8150
8150
8150
8345
8345
8345
8345
8345
8345
8345
8345
8345
8345
8345
8345
8345
8345
8345
8345
8345
8345
8345
8345
8345
8345
8345
8345
8345
8345
8345
8345
8345
8345
8345
8345
8345
8345
8345
8345
8345
8345
8345
8345
8345
8345
8345
8345
8345
8345
8345
7909
7909
7909
7909
7909
7909
7909
7909
7909
7909
7909
7909
7909
7909
7909
7909
7909
7909
7909
7909
7909
7909
7909
7909
7909
7909
7909
7909
7909
7909
7909
7909
7909
7909
7909
7909
7909
7909
7909
7909
7909
7909
7909
7909
7909
7909
7909
7909
7909
7909
7909
7909
7909
7909
7909
7909
7909
7909
7909
7909
7909
7909
7909
7909
7909
7909
7909
7909
7909
7909
7909
7909
7909
7909
7909
7909
7909
7909
7909
7909
7909
7909
7909
7909
7909
7909
7909
7909
7909
7909
8046
8046
8046
8046
8046
8046
8046
8046
8046
8046
8046
8046
8046
8046
8046
8046
8046
8046
8046
8046
8046
8046
8046
8046
8046
8046
8046
8046
8046
7842
7842
7842
7842
7842
7842
7842
7842
7842
7842
7842
7842
7842
7842
7842
7842
7842
7842
7842
7842
7842
7842
7842
7842
7842
7842
7842
7842
7842
7842
7842
7842
7842
7842
7842
7842
7842
7842
7842
7842
7842
7842
7842
7842
7842
7842
7842
7842
7842
7842
7842
7842
7842
7842
7842
7842
7842
7842
7842
7842
7842
7842
7842
7842
7842
7842
7842
7842
7842
7842
7842
7842
7842
7842
7842
7842
7842
7842
7842
7842
7842
7842
7842
7842
7842
7842
7842
7842
7842
7842
7842
7842
7842
7842
7842
7842
7842
7842
7842
7842
7842
7842
7842
7842
7842
7842
7842
7842
7842
7842
7842
7842
7842
7842
7842
7842
7842
7842
7842
7842
7842
7842
7842
7842
7842
7842
7842
7842
7842
7842
7842
7842
7842
7842
7842
7842
7842
7842
7842
7842
7842
7842
7842
7842
7842
7842
7842
7842
7842
7842
7842
7842
7842
7842
7842
7842
7842
7842
7842
7842
7842
7842
7842
7842
7842
7842
7842
7842
7842
7842
7842
7842
7842
7842
7842
7842
7842
7842
7842
7842
7842
7842
7842
7842
7842
7842
7842
7842
7842
7842
7842
7842
7842
7842
7842
7842
7842
7842
7842
7842
7842
7842
7842
7842
7842
7842
7842
7842
7842
7842
7842
7842
7842
7842
7842
7842
7842
7842
7842
7842
7842
7842
7842
7842
7842
7842
7842
7842
7842
7842
7842
7842
7842
7842
7842
7842
7842
7842
7842
7842
7842
7842
7842
7842
7842
7842
7842
7842
7842
7842
7842
7842
7842
7842
7842
7842
7842
7842
7842
7842
7842
7842
7842
7842
7842
7842
7842
7842
7842
7842
7842
7842
7842
7842
7842
7842
7842
7842
7842
7842
7842
7842
7842
7842
7842
7842
7842
7842
7842
7842
7842
7842
7842
7842
7842
7842
7842
7842
7842
7842
7842
7842
7842
7842
7842
7842
7842
7842
7842
7842
7842
7842
7842
7842
7842
7842
7842
7842
7842
7842
7842
7842
7842
7842
7842
7842
7842
7842
7842
7842
7842
7842
7842
7842
7842
7842
7842
7842
7842
7842
7842
7842
7842
7842
7842
7842
7842
7842
7842
7842
7842
7842
7842
7842
7842
7842
7842
7842
7842
7842
7842
7842
7842
7842
7842
7842
7842
7842
7842
7842
7842
7842
7842
7842
7842
7842
7842
7842
7842
7842
7842
7842
7842
7842
7842
7842
7842
7842
7842
7842
7842
7842
7842
7842
7842
7842
7842
7842
7842
7842
7842
7842
7842
7842
7842
7842
7842
7842
7842
7842
7842
7842
7842
7842
7842
7842
7842
7842
7842
7842
7842
7842
7842
7842
7842
7842
7842
7842
7842
7842
7842
7842
7842
7842
7842
7842
7842
7842
7842
7842
7842
7842
7842
7842
7842
7842
7842
7842
7842
7842
7842
7842
7842
7842
7842
7842
7842
7842
7842
7842
7842
7842
7842
7842
7842
7842
7842
7842
7842
7842
7842
7842
7842
7842
7842
7842
7842
7842
7842
7842
7842
7842
7842
7842
7842
7842
7842
7842
7842
7842
7842
7842
7842
7842
7842
7842
7842
7842
7842
7842
7842
7842
7842
7842
7842
7842
7842
7842
7842
7842
7842
7842
7842
7842
7842
7842
7842
7842
7842
7842
7842
7842
7842
7842
7842
7842
7842
7842
7842
7842
7842
7842
7842
7842
7842
7842
7842
7842
7842
7842
7842
7842
7842
7842
7842
7842
7842
7842
7842
7842
7842
7842
7842
7842
7842
7842
7842
7842
7842
7842
7842
7842
7842
7842
7842
7842
7842
7842
7842
7842
7842
7842
7842
7842
7842
7842
7842
7842
7842
7842
7842
7842
7842
7842
7842
7842
7842
7842
7842
7842
7842
7842
7842
7842
7842
7842
7842
7842
7842
7842
7842
7842
7842
7842
7842
7842
7842
7842
7842
7842
7842
7842
7842
7842
7842
7842
7842
7842
7842
7842
7842
7842
7842
7842
7842
7842
7842
7842
7842
7842
7842
7842
7842
7842
7842
7842
7842
7842
7842
7842
7842
7842
7842
7842
7842
7842
7842
7842
7842
7842
7842
7842
7842
7842
7842
7842
7842
7842
7842
7842
7842
7744
7744
7744
7744
7744
7744
7744
7744
7744
7744
7744
7744
7744
7744
7744
7744
7744
7744
7744
7744
7744
7744
7744
7744
7744
7744
7744
7744
7744
7744
7744
7744
7744
7744
7744
7744
7744
7744
7744
7744
7744
7744
7744
7744
7744
7744
7744
7744
7744
7744
7744
7744
7744
7744
7744
7744
7744
7744
7744
7744
7744
7744
7744
7744
7744
7744
7744
7744
7744
7744
7744
7744
7744
7744
7744
7744
7744
7744
7744
7744
7744
7744
7744
7744
7744
7744
7744
7744
7744
7744
7744
7744
7744
7744
7744
7744
7744
7744
7744
7744
7744
7744
7744
7744
7744
7744
7744
7744
7744
7744
7744
7744
7744
7744
7744
7744
7744
7744
7744
7744
7744
7744
7744
7744
7744
7744
7744
7744
7744
7744
7744
7744
7744
7744
7744
7744
7744
7744
7744
7744
7744
7744
7744
7744
7744
7744
7744
7744
7744
7744
7744
7744
7744
7744
7744
7744
7744
7744
7744
7744
7744
7744
7744
7744
7744
7744
7744
7744
7744
7744
7744
7744
7744
7744
7744
7744
7744
7744
7744
7744
7744
7744
7744
7744
7744
7744
7744
7744
7744
7744
7744
7744
7744
7744
7744
7744
7744
7744
7744
7744
7744
7744
7744
7744
7744
7744
7744
7744
7744
7744
10011
8825
8825
8825
8825
8825
8825
8825
8825
8825
8825
8825
8567
8567
8567
8567
8567
8567
8567
8567
8567
8567
8567
7771
7771
7771
7771
7771
7771
7771
7771
7771
7771
7771
7771
7771
7771
7771
7771
7771
7771
7771
7771
7771
7771
7771
7771
7771
7771
7771
7771
7771
7771
7771
7771
7771
7771
7771
7771
7771
7771
7771
7771
7771
7771
7771
7771
7771
7771
7771
7771
7771
7771
7771
7771
7771
7771
7771
7771
7771
7771
7771
7771
7771
7771
7771
7771
7771
7771
7771
7771
7771
7771
7771
7771
7771
7771
7771
7771
7771
7771
7771
7771
7771
7771
7771
7771
7771
7771
7771
7771
7771
7771
7771
7771
7771
7771
7771
7771
7771
7771
7771
7771
7771
7771
7771
7771
7771
7771
7771
7771
7771
7771
7771
7771
7771
7771
7771
7771
7771
7771
7771
7771
7771
7771
7771
7771
7771
7771
7771
7771
7771
7771
7771
7771
7771
7771
7771
7771
7771
7771
7771
7771
7771
7771
7771
7771
7771
7771
7771
7771
7771
7771
7771
7771
7771
7771
7771
7771
7771
7771
7771
7771
7771
7771
7771
7771
7771
7771
7771
7771
7771
7771
7771
7771
7771
7771
7771
7771
7771
7771
7771
7771
7771
7771
7771
7771
7771
7771
7771
7771
7771
7771
7771
7771
7771
7771
7771
7771
7771
7771
7771
10011
8234
8234
8234
8126
8126
8126
8126
8126
8126
8126
8126
8126
8126
8126
8126
8126
8126
8126
8126
8126
8126
8126
7739
7739
7739
7739
7739
7739
7739
7739
7739
7739
7739
7739
7739
7739
7739
7739
7739
7739
7739
7739
7739
7739
7739
7739
7739
7739
7739
7739
7739
7739
7739
7739
7739
7739
7739
7739
7739
7739
7739
7739
7739
7739
7739
7739
7739
7739
7739
7739
7739
7739
7739
7739
7739
7739
7739
7739
7739
7739
7739
7739
7739
7739
10016
8476
8476
8476
8476
8476
8476
8476
8476
8126
8126
8126
8126
8126
8126
8126
8126
8126
8408
8408
8408
8408
8408
8408
8408
8408
8408
8408
8171
8171
8171
8171
8171
8171
8171
8171
8171
8171
8171
8171
8171
8171
8171
8171
8171
8171
8171
10011
10006
10006
10006
